1448785116718660518507,14,1,2,011,2,1,2,06,14,1,2,012,13,1,2,010,13,1,2,03,11,1,2,09,7,1,2,05,2,1,2,04,1,1,2,04,9,1,2,010,9,1,2,01,7,1,2,06,13,1,2,02,2,1,2,01,8,1,2,014,7,1,2,011,6,1,2,013,5,1,2,013,14,1,2,06,11,1,2,06,6,1,2,012,5,1,2,01,3,1,2,03,6,1,2,015,3,1,2,09,8,1,2,01,8,1,2,05,1,1,2,014,7,1,2,08,4,1,2,014,12,1,2,010,11,1,2,012,14,1,2,05,13,1,2,011,9,1,2,05,11,1,2,012,6,1,2,03,3,1,2,011,1,1,2,04,3,1,2,02,15,1,2,04,13,1,2,02,15,1,2,013,11,1,2,011,2,1,2,012,6,1,2,014,7,1,2,013,7,1,2,02,12,1,2,015,13,1,2,0